c A SAT instance generated from a 3-CNF formula that had 48 clauses and 12 variables
p cnf 12 48
6 2 9 0
2 11 1 0
4 -10 -5 0
-5 3 9 0
1 6 4 0
11 8 2 0
9 -8 6 0
8 5 -9 0
-8 -12 -4 0
4 -3 -5 0
-10 2 -1 0
-5 7 1 0
-3 -12 7 0
12 -7 -3 0
9 1 -4 0
-11 3 6 0
4 -9 -8 0
6 -12 11 0
-3 1 -11 0
-3 -4 7 0
-9 2 -1 0
-4 11 1 0
3 -9 1 0
7 -11 -6 0
4 10 3 0
-7 6 -4 0
-1 -10 -5 0
-4 -12 1 0
4 -3 5 0
-7 10 -6 0
12 -2 -6 0
-3 -11 -2 0
-10 -8 4 0
8 6 -10 0
12 -3 5 0
2 3 4 0
-7 2 -6 0
8 1 -10 0
7 -4 -5 0
12 -3 -7 0
-7 -2 -3 0
7 1 11 0
3 -11 10 0
10 -5 8 0
8 5 4 0
-5 10 -7 0
-9 -4 -8 0
12 11 -5 0
